
  32    1
  10

   0   0   5 2 3 5 6 8 
   3   2   2 11 4 
   1   7   3 11 9 7 
   6   4   2 9 7 
   6   4   4 16 15 12 11 
   5   8   4 16 15 12 11 
   3   4   2 15 10 
  10  10   2 16 9 
   6   6   3 17 15 12 
   8   5   3 17 16 12 
   3   4   4 20 17 14 13 
   6   8   3 20 14 13 
   6   8   4 22 21 19 18 
   5   8   3 22 21 18 
   3   6   3 26 22 21 
   2   6   2 31 18 
   5   8   5 31 27 26 25 23 
   9   6   4 27 26 25 23 
   9   4   5 31 30 26 25 24 
   1   6   3 31 27 23 
   2   6   2 25 23 
   3   7   3 31 30 24 
   6  10   2 30 24 
   9   7   2 29 28 
   1   5   2 29 28 
   8   4   2 29 28 
   6   8   2 30 28 
   3   5   1 32
   6   6   1 32
   8   5   1 32
   6   3   1 32
   0   0   0 
